\ Model RRP
\ LP format - for model browsing. Use MPS format to capture full model detail.
Maximize
  z_i[2] + z_i[3] + z_i[4]
Subject To
 R0: x_kij[0,0,2] + x_kij[0,0,3] + x_kij[0,0,4] + x_kij[0,0,8] = 1
 R1: x_kij[1,1,2] + x_kij[1,1,3] + x_kij[1,1,4] + x_kij[1,1,9] = 1
 R2: x_kij[0,0,8] + x_kij[0,5,8] + x_kij[0,6,8] + x_kij[0,7,8] = 1
 R3: x_kij[1,1,9] + x_kij[1,5,9] + x_kij[1,6,9] + x_kij[1,7,9] = 1
 R4: x_kij[0,0,2] + x_kij[0,0,3] + x_kij[0,0,4] + x_kij[0,0,8] = 0
 R5: - x_kij[0,0,2] + x_kij[0,2,3] + x_kij[0,2,4] + x_kij[0,2,5]
   + x_kij[0,2,6] + x_kij[0,2,7] - x_kij[0,3,2] - x_kij[0,4,2] = 0
 R6: - x_kij[0,0,3] - x_kij[0,2,3] + x_kij[0,3,2] + x_kij[0,3,4]
   + x_kij[0,3,5] + x_kij[0,3,6] + x_kij[0,3,7] - x_kij[0,4,3] = 0
 R7: - x_kij[0,0,4] - x_kij[0,2,4] - x_kij[0,3,4] + x_kij[0,4,2]
   + x_kij[0,4,3] + x_kij[0,4,5] + x_kij[0,4,6] + x_kij[0,4,7] = 0
 R8: - x_kij[0,2,5] - x_kij[0,3,5] - x_kij[0,4,5] + x_kij[0,5,6]
   + x_kij[0,5,7] + x_kij[0,5,8] - x_kij[0,6,5] - x_kij[0,7,5] = 0
 R9: - x_kij[0,2,6] - x_kij[0,3,6] - x_kij[0,4,6] - x_kij[0,5,6]
   + x_kij[0,6,5] + x_kij[0,6,7] + x_kij[0,6,8] - x_kij[0,7,6] = 0
 R10: - x_kij[0,2,7] - x_kij[0,3,7] - x_kij[0,4,7] - x_kij[0,5,7]
   - x_kij[0,6,7] + x_kij[0,7,5] + x_kij[0,7,6] + x_kij[0,7,8] = 0
 R11: - x_kij[0,0,8] - x_kij[0,5,8] - x_kij[0,6,8] - x_kij[0,7,8] = 0
 R12: x_kij[1,1,2] + x_kij[1,1,3] + x_kij[1,1,4] + x_kij[1,1,9] = 0
 R13: - x_kij[1,1,2] + x_kij[1,2,3] + x_kij[1,2,4] + x_kij[1,2,5]
   + x_kij[1,2,6] + x_kij[1,2,7] - x_kij[1,3,2] - x_kij[1,4,2] = 0
 R14: - x_kij[1,1,3] - x_kij[1,2,3] + x_kij[1,3,2] + x_kij[1,3,4]
   + x_kij[1,3,5] + x_kij[1,3,6] + x_kij[1,3,7] - x_kij[1,4,3] = 0
 R15: - x_kij[1,1,4] - x_kij[1,2,4] - x_kij[1,3,4] + x_kij[1,4,2]
   + x_kij[1,4,3] + x_kij[1,4,5] + x_kij[1,4,6] + x_kij[1,4,7] = 0
 R16: - x_kij[1,2,5] - x_kij[1,3,5] - x_kij[1,4,5] + x_kij[1,5,6]
   + x_kij[1,5,7] + x_kij[1,5,9] - x_kij[1,6,5] - x_kij[1,7,5] = 0
 R17: - x_kij[1,2,6] - x_kij[1,3,6] - x_kij[1,4,6] - x_kij[1,5,6]
   + x_kij[1,6,5] + x_kij[1,6,7] + x_kij[1,6,9] - x_kij[1,7,6] = 0
 R18: - x_kij[1,2,7] - x_kij[1,3,7] - x_kij[1,4,7] - x_kij[1,5,7]
   - x_kij[1,6,7] + x_kij[1,7,5] + x_kij[1,7,6] + x_kij[1,7,9] = 0
 R19: - x_kij[1,1,9] - x_kij[1,5,9] - x_kij[1,6,9] - x_kij[1,7,9] = 0
 R20: x_kij[0,2,3] + x_kij[0,2,4] + x_kij[0,2,5] + x_kij[0,2,6]
   + x_kij[0,2,7] - x_kij[0,5,6] - x_kij[0,5,7] - x_kij[0,5,8] = 0
 R21: x_kij[0,3,2] + x_kij[0,3,4] + x_kij[0,3,5] + x_kij[0,3,6]
   + x_kij[0,3,7] - x_kij[0,6,5] - x_kij[0,6,7] - x_kij[0,6,8] = 0
 R22: x_kij[0,4,2] + x_kij[0,4,3] + x_kij[0,4,5] + x_kij[0,4,6]
   + x_kij[0,4,7] - x_kij[0,7,5] - x_kij[0,7,6] - x_kij[0,7,8] = 0
 R23: x_kij[1,2,3] + x_kij[1,2,4] + x_kij[1,2,5] + x_kij[1,2,6]
   + x_kij[1,2,7] - x_kij[1,5,6] - x_kij[1,5,7] - x_kij[1,5,9] = 0
 R24: x_kij[1,3,2] + x_kij[1,3,4] + x_kij[1,3,5] + x_kij[1,3,6]
   + x_kij[1,3,7] - x_kij[1,6,5] - x_kij[1,6,7] - x_kij[1,6,9] = 0
 R25: x_kij[1,4,2] + x_kij[1,4,3] + x_kij[1,4,5] + x_kij[1,4,6]
   + x_kij[1,4,7] - x_kij[1,7,5] - x_kij[1,7,6] - x_kij[1,7,9] = 0
 R26: x_kij[0,2,3] + x_kij[0,2,4] + x_kij[0,2,5] + x_kij[0,2,6]
   + x_kij[0,2,7] + x_kij[1,2,3] + x_kij[1,2,4] + x_kij[1,2,5]
   + x_kij[1,2,6] + x_kij[1,2,7] - z_i[2] = 0
 R27: x_kij[0,3,2] + x_kij[0,3,4] + x_kij[0,3,5] + x_kij[0,3,6]
   + x_kij[0,3,7] + x_kij[1,3,2] + x_kij[1,3,4] + x_kij[1,3,5]
   + x_kij[1,3,6] + x_kij[1,3,7] - z_i[3] = 0
 R28: x_kij[0,4,2] + x_kij[0,4,3] + x_kij[0,4,5] + x_kij[0,4,6]
   + x_kij[0,4,7] + x_kij[1,4,2] + x_kij[1,4,3] + x_kij[1,4,5]
   + x_kij[1,4,6] + x_kij[1,4,7] - z_i[4] = 0
 R29: x_kij[0,0,2] + x_kij[0,3,2] + x_kij[0,4,2] + x_kij[1,1,2]
   + x_kij[1,3,2] + x_kij[1,4,2] <= 1
 R30: x_kij[0,0,3] + x_kij[0,2,3] + x_kij[0,4,3] + x_kij[1,1,3]
   + x_kij[1,2,3] + x_kij[1,4,3] <= 1
 R31: x_kij[0,0,4] + x_kij[0,2,4] + x_kij[0,3,4] + x_kij[1,1,4]
   + x_kij[1,2,4] + x_kij[1,3,4] <= 1
 R32: x_kij[0,2,5] + x_kij[0,3,5] + x_kij[0,4,5] + x_kij[0,6,5]
   + x_kij[0,7,5] + x_kij[1,2,5] + x_kij[1,3,5] + x_kij[1,4,5]
   + x_kij[1,6,5] + x_kij[1,7,5] <= 1
 R33: x_kij[0,2,6] + x_kij[0,3,6] + x_kij[0,4,6] + x_kij[0,5,6]
   + x_kij[0,7,6] + x_kij[1,2,6] + x_kij[1,3,6] + x_kij[1,4,6]
   + x_kij[1,5,6] + x_kij[1,7,6] <= 1
 R34: x_kij[0,2,7] + x_kij[0,3,7] + x_kij[0,4,7] + x_kij[0,5,7]
   + x_kij[0,6,7] + x_kij[1,2,7] + x_kij[1,3,7] + x_kij[1,4,7]
   + x_kij[1,5,7] + x_kij[1,6,7] <= 1
 R35: t_ki[0,2] - t_ki[0,5] <= -18.11077027627483
 R36: t_ki[0,3] - t_ki[0,6] <= -16.49242250247064
 R37: t_ki[0,4] - t_ki[0,7] <= -20.8806130178211
 R38: t_ki[1,2] - t_ki[1,5] <= -18.11077027627483
 R39: t_ki[1,3] - t_ki[1,6] <= -16.49242250247064
 R40: t_ki[1,4] - t_ki[1,7] <= -20.8806130178211
 R41: 1200 x_kij[0,0,2] + t_ki[0,0] - t_ki[0,2] <= 1192.788897449072
 R42: 1200 x_kij[0,0,3] + t_ki[0,0] - t_ki[0,3] <= 1191.055728090001
 R43: 1200 x_kij[0,0,4] + t_ki[0,0] - t_ki[0,4] <= 1187.350889359326
 R44: 1200 x_kij[0,0,8] + t_ki[0,0] - t_ki[0,8] <= 1165.474646996736
 R45: 1200 x_kij[0,2,3] + t_ki[0,2] - t_ki[0,3] <= 1189.229670385731
 R46: 1200 x_kij[0,2,4] + t_ki[0,2] - t_ki[0,4] <= 1191.753788748765
 R47: 1200 x_kij[0,2,5] + t_ki[0,2] - t_ki[0,5] <= 1181.889229723725
 R48: 1200 x_kij[0,2,6] + t_ki[0,2] - t_ki[0,6] <= 1179.119386982179
 R49: 1200 x_kij[0,2,7] + t_ki[0,2] - t_ki[0,7] <= 1170.879560442878
 R50: 1200 x_kij[0,3,2] - t_ki[0,2] + t_ki[0,3] <= 1189.229670385731
 R51: 1200 x_kij[0,3,4] + t_ki[0,3] - t_ki[0,4] <= 1191.055728090001
 R52: 1200 x_kij[0,3,5] + t_ki[0,3] - t_ki[0,5] <= 1181.560911085414
 R53: 1200 x_kij[0,3,6] + t_ki[0,3] - t_ki[0,6] <= 1183.507577497529
 R54: 1200 x_kij[0,3,7] + t_ki[0,3] - t_ki[0,7] <= 1175.916810842415
 R55: 1200 x_kij[0,4,2] - t_ki[0,2] + t_ki[0,4] <= 1191.753788748765
 R56: 1200 x_kij[0,4,3] - t_ki[0,3] + t_ki[0,4] <= 1191.055728090001
 R57: 1200 x_kij[0,4,5] + t_ki[0,4] - t_ki[0,5] <= 1189.229670385731
 R58: 1200 x_kij[0,4,6] + t_ki[0,4] - t_ki[0,6] <= 1187.350889359326
 R59: 1200 x_kij[0,4,7] + t_ki[0,4] - t_ki[0,7] <= 1179.119386982179
 R60: 1200 x_kij[0,5,6] + t_ki[0,5] - t_ki[0,6] <= 1191.753788748765
 R61: 1200 x_kij[0,5,7] + t_ki[0,5] - t_ki[0,7] <= 1185.857864376269
 R62: 1200 x_kij[0,5,8] + t_ki[0,5] - t_ki[0,8] <= 1187.834474939404
 R63: 1200 x_kij[0,6,5] - t_ki[0,5] + t_ki[0,6] <= 1191.753788748765
 R64: 1200 x_kij[0,6,7] + t_ki[0,6] - t_ki[0,7] <= 1191.753788748765
 R65: 1200 x_kij[0,6,8] + t_ki[0,6] - t_ki[0,8] <= 1188.338096210309
 R66: 1200 x_kij[0,7,5] - t_ki[0,5] + t_ki[0,7] <= 1185.857864376269
 R67: 1200 x_kij[0,7,6] - t_ki[0,6] + t_ki[0,7] <= 1191.753788748765
 R68: 1200 x_kij[0,7,8] + t_ki[0,7] - t_ki[0,8] <= 1191.753788748765
 R69: 1200 x_kij[1,1,2] + t_ki[1,1] - t_ki[1,2] <= 1185.439780221439
 R70: 1200 x_kij[1,1,3] + t_ki[1,1] - t_ki[1,3] <= 1191.055728090001
 R71: 1200 x_kij[1,1,4] + t_ki[1,1] - t_ki[1,4] <= 1183.029437251523
 R72: 1200 x_kij[1,1,9] + t_ki[1,1] - t_ki[1,9] <= 1158.768943743823
 R73: 1200 x_kij[1,2,3] + t_ki[1,2] - t_ki[1,3] <= 1189.229670385731
 R74: 1200 x_kij[1,2,4] + t_ki[1,2] - t_ki[1,4] <= 1191.753788748765
 R75: 1200 x_kij[1,2,5] + t_ki[1,2] - t_ki[1,5] <= 1181.889229723725
 R76: 1200 x_kij[1,2,6] + t_ki[1,2] - t_ki[1,6] <= 1179.119386982179
 R77: 1200 x_kij[1,2,7] + t_ki[1,2] - t_ki[1,7] <= 1170.879560442878
 R78: 1200 x_kij[1,3,2] - t_ki[1,2] + t_ki[1,3] <= 1189.229670385731
 R79: 1200 x_kij[1,3,4] + t_ki[1,3] - t_ki[1,4] <= 1191.055728090001
 R80: 1200 x_kij[1,3,5] + t_ki[1,3] - t_ki[1,5] <= 1181.560911085414
 R81: 1200 x_kij[1,3,6] + t_ki[1,3] - t_ki[1,6] <= 1183.507577497529
 R82: 1200 x_kij[1,3,7] + t_ki[1,3] - t_ki[1,7] <= 1175.916810842415
 R83: 1200 x_kij[1,4,2] - t_ki[1,2] + t_ki[1,4] <= 1191.753788748765
 R84: 1200 x_kij[1,4,3] - t_ki[1,3] + t_ki[1,4] <= 1191.055728090001
 R85: 1200 x_kij[1,4,5] + t_ki[1,4] - t_ki[1,5] <= 1189.229670385731
 R86: 1200 x_kij[1,4,6] + t_ki[1,4] - t_ki[1,6] <= 1187.350889359326
 R87: 1200 x_kij[1,4,7] + t_ki[1,4] - t_ki[1,7] <= 1179.119386982179
 R88: 1200 x_kij[1,5,6] + t_ki[1,5] - t_ki[1,6] <= 1191.753788748765
 R89: 1200 x_kij[1,5,7] + t_ki[1,5] - t_ki[1,7] <= 1185.857864376269
 R90: 1200 x_kij[1,5,9] + t_ki[1,5] - t_ki[1,9] <= 1181.02633403899
 R91: 1200 x_kij[1,6,5] - t_ki[1,5] + t_ki[1,6] <= 1191.753788748765
 R92: 1200 x_kij[1,6,7] + t_ki[1,6] - t_ki[1,7] <= 1191.753788748765
 R93: 1200 x_kij[1,6,9] + t_ki[1,6] - t_ki[1,9] <= 1183.875484503403
 R94: 1200 x_kij[1,7,5] - t_ki[1,5] + t_ki[1,7] <= 1185.857864376269
 R95: 1200 x_kij[1,7,6] - t_ki[1,6] + t_ki[1,7] <= 1191.753788748765
 R96: 1200 x_kij[1,7,9] + t_ki[1,7] - t_ki[1,9] <= 1191.055728090001
 R97: t_ki[0,5] >= 1100
 R98: t_ki[0,6] >= 1100
 R99: t_ki[0,7] >= 1100
 R100: t_ki[1,5] >= 1100
 R101: t_ki[1,6] >= 1100
 R102: t_ki[1,7] >= 1100
 R103: t_ki[0,5] <= 1150
 R104: t_ki[0,6] <= 1120
 R105: t_ki[0,7] <= 1125
 R106: t_ki[1,5] <= 1150
 R107: t_ki[1,6] <= 1120
 R108: t_ki[1,7] <= 1125
 R109: t_ki[0,0] >= 1000
 R110: t_ki[0,2] >= 1000
 R111: t_ki[0,3] >= 1000
 R112: t_ki[0,4] >= 1000
 R113: t_ki[0,5] >= 1000
 R114: t_ki[0,6] >= 1000
 R115: t_ki[0,7] >= 1000
 R116: t_ki[0,0] >= 1000
 R117: t_ki[0,2] >= 1000
 R118: t_ki[0,3] >= 1000
 R119: t_ki[0,4] >= 1000
 R120: t_ki[0,5] >= 1000
 R121: t_ki[0,6] >= 1000
 R122: t_ki[0,7] >= 1000
 R123: t_ki[1,1] >= 1000
 R124: t_ki[1,2] >= 1000
 R125: t_ki[1,3] >= 1000
 R126: t_ki[1,4] >= 1000
 R127: t_ki[1,5] >= 1000
 R128: t_ki[1,6] >= 1000
 R129: t_ki[1,7] >= 1000
 R130: t_ki[1,1] >= 1000
 R131: t_ki[1,2] >= 1000
 R132: t_ki[1,3] >= 1000
 R133: t_ki[1,4] >= 1000
 R134: t_ki[1,5] >= 1000
 R135: t_ki[1,6] >= 1000
 R136: t_ki[1,7] >= 1000
 R137: t_ki[0,0] <= 1200
 R138: t_ki[0,2] <= 1200
 R139: t_ki[0,3] <= 1200
 R140: t_ki[0,4] <= 1200
 R141: t_ki[0,5] <= 1200
 R142: t_ki[0,6] <= 1200
 R143: t_ki[0,7] <= 1200
 R144: t_ki[0,0] <= 1200
 R145: t_ki[0,2] <= 1200
 R146: t_ki[0,3] <= 1200
 R147: t_ki[0,4] <= 1200
 R148: t_ki[0,5] <= 1200
 R149: t_ki[0,6] <= 1200
 R150: t_ki[0,7] <= 1200
 R151: t_ki[1,1] <= 1200
 R152: t_ki[1,2] <= 1200
 R153: t_ki[1,3] <= 1200
 R154: t_ki[1,4] <= 1200
 R155: t_ki[1,5] <= 1200
 R156: t_ki[1,6] <= 1200
 R157: t_ki[1,7] <= 1200
 R158: t_ki[1,1] <= 1200
 R159: t_ki[1,2] <= 1200
 R160: t_ki[1,3] <= 1200
 R161: t_ki[1,4] <= 1200
 R162: t_ki[1,5] <= 1200
 R163: t_ki[1,6] <= 1200
 R164: t_ki[1,7] <= 1200
 R165: - t_ki[0,2] + t_ki[0,5] <= 150
 R166: - t_ki[0,3] + t_ki[0,6] <= 150
 R167: - t_ki[0,4] + t_ki[0,7] <= 150
 R168: - t_ki[1,2] + t_ki[1,5] <= 150
 R169: - t_ki[1,3] + t_ki[1,6] <= 150
 R170: - t_ki[1,4] + t_ki[1,7] <= 150
 R171: - t_ki[0,0] + t_ki[0,8] <= 150
 R172: - t_ki[1,1] + t_ki[1,9] <= 150
 R173: x_kij[0,2,3] + x_kij[0,2,4] + x_kij[0,2,5] + x_kij[0,2,6]
   + x_kij[0,2,7] + x_kij[0,3,2] + x_kij[0,3,4] + x_kij[0,3,5]
   + x_kij[0,3,6] + x_kij[0,3,7] + x_kij[0,4,2] + x_kij[0,4,3]
   + x_kij[0,4,5] + x_kij[0,4,6] + x_kij[0,4,7] <= 4
 R174: x_kij[1,2,3] + x_kij[1,2,4] + x_kij[1,2,5] + x_kij[1,2,6]
   + x_kij[1,2,7] + x_kij[1,3,2] + x_kij[1,3,4] + x_kij[1,3,5]
   + x_kij[1,3,6] + x_kij[1,3,7] + x_kij[1,4,2] + x_kij[1,4,3]
   + x_kij[1,4,5] + x_kij[1,4,6] + x_kij[1,4,7] <= 4
 qc0: 1081.889229723725 x_kij[0,2,5] + [ - x_kij[0,2,5] * t_ki[0,2] ] <= 0
 qc1: 1079.119386982179 x_kij[0,2,6] + [ - x_kij[0,2,6] * t_ki[0,2] ] <= 0
 qc2: 1070.879560442878 x_kij[0,2,7] + [ - x_kij[0,2,7] * t_ki[0,2] ] <= 0
 qc3: 1081.560911085414 x_kij[0,3,5] + [ - x_kij[0,3,5] * t_ki[0,3] ] <= 0
 qc4: 1083.507577497529 x_kij[0,3,6] + [ - x_kij[0,3,6] * t_ki[0,3] ] <= 0
 qc5: 1075.916810842415 x_kij[0,3,7] + [ - x_kij[0,3,7] * t_ki[0,3] ] <= 0
 qc6: 1089.229670385731 x_kij[0,4,5] + [ - x_kij[0,4,5] * t_ki[0,4] ] <= 0
 qc7: 1087.350889359326 x_kij[0,4,6] + [ - x_kij[0,4,6] * t_ki[0,4] ] <= 0
 qc8: 1079.119386982179 x_kij[0,4,7] + [ - x_kij[0,4,7] * t_ki[0,4] ] <= 0
 qc9: 1081.889229723725 x_kij[1,2,5] + [ - x_kij[1,2,5] * t_ki[1,2] ] <= 0
 qc10: 1079.119386982179 x_kij[1,2,6] + [ - x_kij[1,2,6] * t_ki[1,2] ]
   <= 0
 qc11: 1070.879560442878 x_kij[1,2,7] + [ - x_kij[1,2,7] * t_ki[1,2] ]
   <= 0
 qc12: 1081.560911085414 x_kij[1,3,5] + [ - x_kij[1,3,5] * t_ki[1,3] ]
   <= 0
 qc13: 1083.507577497529 x_kij[1,3,6] + [ - x_kij[1,3,6] * t_ki[1,3] ]
   <= 0
 qc14: 1075.916810842415 x_kij[1,3,7] + [ - x_kij[1,3,7] * t_ki[1,3] ]
   <= 0
 qc15: 1089.229670385731 x_kij[1,4,5] + [ - x_kij[1,4,5] * t_ki[1,4] ]
   <= 0
 qc16: 1087.350889359326 x_kij[1,4,6] + [ - x_kij[1,4,6] * t_ki[1,4] ]
   <= 0
 qc17: 1079.119386982179 x_kij[1,4,7] + [ - x_kij[1,4,7] * t_ki[1,4] ]
   <= 0
 qc18: 1131.889229723725 x_kij[0,2,5] + [ - x_kij[0,2,5] * t_ki[0,2] ]
   >= 0
 qc19: 1099.119386982179 x_kij[0,2,6] + [ - x_kij[0,2,6] * t_ki[0,2] ]
   >= 0
 qc20: 1095.879560442878 x_kij[0,2,7] + [ - x_kij[0,2,7] * t_ki[0,2] ]
   >= 0
 qc21: 1131.560911085414 x_kij[0,3,5] + [ - x_kij[0,3,5] * t_ki[0,3] ]
   >= 0
 qc22: 1103.507577497529 x_kij[0,3,6] + [ - x_kij[0,3,6] * t_ki[0,3] ]
   >= 0
 qc23: 1100.916810842415 x_kij[0,3,7] + [ - x_kij[0,3,7] * t_ki[0,3] ]
   >= 0
 qc24: 1139.229670385731 x_kij[0,4,5] + [ - x_kij[0,4,5] * t_ki[0,4] ]
   >= 0
 qc25: 1107.350889359326 x_kij[0,4,6] + [ - x_kij[0,4,6] * t_ki[0,4] ]
   >= 0
 qc26: 1104.119386982179 x_kij[0,4,7] + [ - x_kij[0,4,7] * t_ki[0,4] ]
   >= 0
 qc27: 1131.889229723725 x_kij[1,2,5] + [ - x_kij[1,2,5] * t_ki[1,2] ]
   >= 0
 qc28: 1099.119386982179 x_kij[1,2,6] + [ - x_kij[1,2,6] * t_ki[1,2] ]
   >= 0
 qc29: 1095.879560442878 x_kij[1,2,7] + [ - x_kij[1,2,7] * t_ki[1,2] ]
   >= 0
 qc30: 1131.560911085414 x_kij[1,3,5] + [ - x_kij[1,3,5] * t_ki[1,3] ]
   >= 0
 qc31: 1103.507577497529 x_kij[1,3,6] + [ - x_kij[1,3,6] * t_ki[1,3] ]
   >= 0
 qc32: 1100.916810842415 x_kij[1,3,7] + [ - x_kij[1,3,7] * t_ki[1,3] ]
   >= 0
 qc33: 1139.229670385731 x_kij[1,4,5] + [ - x_kij[1,4,5] * t_ki[1,4] ]
   >= 0
 qc34: 1107.350889359326 x_kij[1,4,6] + [ - x_kij[1,4,6] * t_ki[1,4] ]
   >= 0
 qc35: 1104.119386982179 x_kij[1,4,7] + [ - x_kij[1,4,7] * t_ki[1,4] ]
   >= 0
Bounds
Binaries
 x_kij[0,0,2] x_kij[0,0,3] x_kij[0,0,4] x_kij[0,0,8] x_kij[0,2,3]
 x_kij[0,2,4] x_kij[0,2,5] x_kij[0,2,6] x_kij[0,2,7] x_kij[0,3,2]
 x_kij[0,3,4] x_kij[0,3,5] x_kij[0,3,6] x_kij[0,3,7] x_kij[0,4,2]
 x_kij[0,4,3] x_kij[0,4,5] x_kij[0,4,6] x_kij[0,4,7] x_kij[0,5,6]
 x_kij[0,5,7] x_kij[0,5,8] x_kij[0,6,5] x_kij[0,6,7] x_kij[0,6,8]
 x_kij[0,7,5] x_kij[0,7,6] x_kij[0,7,8] x_kij[1,1,2] x_kij[1,1,3]
 x_kij[1,1,4] x_kij[1,1,9] x_kij[1,2,3] x_kij[1,2,4] x_kij[1,2,5]
 x_kij[1,2,6] x_kij[1,2,7] x_kij[1,3,2] x_kij[1,3,4] x_kij[1,3,5]
 x_kij[1,3,6] x_kij[1,3,7] x_kij[1,4,2] x_kij[1,4,3] x_kij[1,4,5]
 x_kij[1,4,6] x_kij[1,4,7] x_kij[1,5,6] x_kij[1,5,7] x_kij[1,5,9]
 x_kij[1,6,5] x_kij[1,6,7] x_kij[1,6,9] x_kij[1,7,5] x_kij[1,7,6]
 x_kij[1,7,9] z_i[2] z_i[3] z_i[4]
End
